(set-logic QF_LIA)
(declare-fun x0 () Int)
(declare-fun x1 () Int)
(declare-fun x2 () Int)
(declare-fun x3 () Int)
(declare-fun x4 () Int)
(declare-fun x5 () Int)
(declare-fun x6 () Int)
(declare-fun x7 () Int)
(declare-fun x8 () Int)
(declare-fun x9 () Int)
(declare-fun A0 () Bool)
(declare-fun A1 () Bool)
(declare-fun A2 () Bool)
(declare-fun A3 () Bool)
(declare-fun A4 () Bool)
(declare-fun A5 () Bool)
(declare-fun A6 () Bool)
(declare-fun A7 () Bool)
(declare-fun A8 () Bool)
(declare-fun A9 () Bool)
(assert (let ((.def_0 (or A7 A0))) (let ((.def_1 (not .def_0))) (let ((.def_2 (* (- 1) x6))) (let ((.def_3 (* (- 1) x3))) (let ((.def_4 (+ .def_3 .def_2))) (let ((.def_5 (< .def_4 (- 1)))) (let ((.def_6 (* (- 1) x0))) (let ((.def_7 (< .def_6 (- 1)))) (let ((.def_8 (not .def_7))) (let ((.def_9 (= .def_8 .def_5))) (let ((.def_10 (and .def_9 .def_1))) (let ((.def_11 (* (- 1) x5))) (let ((.def_12 (* 1 x4))) (let ((.def_13 (+ .def_12 .def_11))) (let ((.def_14 (< .def_13 (- 1)))) (let ((.def_15 (not .def_14))) (let ((.def_16 (or .def_15 A8))) (let ((.def_17 (not A4))) (let ((.def_18 (and A2 .def_17))) (let ((.def_19 (not .def_18))) (let ((.def_20 (and .def_19 .def_16))) (let ((.def_21 (not .def_20))) (let ((.def_22 (and .def_21 .def_10))) (let ((.def_23 (not .def_22))) (let ((.def_24 (* 1 x5))) (let ((.def_25 (< .def_24 (- 1)))) (let ((.def_26 (= A4 .def_25))) (let ((.def_27 (* (- 1) x1))) (let ((.def_28 (+ .def_27 .def_3))) (let ((.def_29 (< .def_28 1))) (let ((.def_30 (* 1 x2))) (let ((.def_31 (< .def_30 1))) (let ((.def_32 (not .def_31))) (let ((.def_33 (and .def_32 .def_29))) (let ((.def_34 (not .def_33))) (let ((.def_35 (and .def_34 .def_26))) (let ((.def_36 (not .def_35))) (let ((.def_37 (+ .def_30 .def_27))) (let ((.def_38 (< .def_37 1))) (let ((.def_39 (and .def_38 A7))) (let ((.def_40 (not .def_39))) (let ((.def_41 (* (- 1) x8))) (let ((.def_42 (+ .def_41 .def_27))) (let ((.def_43 (< .def_42 1))) (let ((.def_44 (not .def_43))) (let ((.def_45 (not A7))) (let ((.def_46 (and .def_45 .def_44))) (let ((.def_47 (not .def_46))) (let ((.def_48 (or .def_47 .def_40))) (let ((.def_49 (not .def_48))) (let ((.def_50 (or .def_49 .def_36))) (let ((.def_51 (or .def_50 .def_23))) (let ((.def_52 (or A7 A1))) (let ((.def_53 (not .def_52))) (let ((.def_54 (* 1 x8))) (let ((.def_55 (+ .def_24 .def_54))) (let ((.def_56 (< .def_55 (- 1)))) (let ((.def_57 (not .def_56))) (let ((.def_58 (not A8))) (let ((.def_59 (or .def_58 .def_57))) (let ((.def_60 (not .def_59))) (let ((.def_61 (and .def_60 .def_53))) (let ((.def_62 (not .def_61))) (let ((.def_63 (or A2 A2))) (let ((.def_64 (< .def_12 1))) (let ((.def_65 (not .def_64))) (let ((.def_66 (and .def_65 A7))) (let ((.def_67 (and .def_66 .def_63))) (let ((.def_68 (and .def_67 .def_62))) (let ((.def_69 (not .def_68))) (let ((.def_70 (* 1 x3))) (let ((.def_71 (* 1 x1))) (let ((.def_72 (+ .def_71 .def_70))) (let ((.def_73 (< .def_72 (- 1)))) (let ((.def_74 (not .def_73))) (let ((.def_75 (and A4 .def_74))) (let ((.def_76 (* (- 1) x7))) (let ((.def_77 (+ .def_76 .def_24))) (let ((.def_78 (< .def_77 1))) (let ((.def_79 (< .def_27 (- 1)))) (let ((.def_80 (not .def_79))) (let ((.def_81 (or .def_80 .def_78))) (let ((.def_82 (not .def_81))) (let ((.def_83 (and .def_82 .def_75))) (let ((.def_84 (not .def_83))) (let ((.def_85 (+ .def_24 .def_3))) (let ((.def_86 (< .def_85 1))) (let ((.def_87 (= .def_86 A0))) (let ((.def_88 (not .def_87))) (let ((.def_89 (* 1 x9))) (let ((.def_90 (* 1 x6))) (let ((.def_91 (+ .def_90 .def_89))) (let ((.def_92 (< .def_91 1))) (let ((.def_93 (or .def_92 A9))) (let ((.def_94 (not .def_93))) (let ((.def_95 (or .def_94 .def_88))) (let ((.def_96 (not .def_95))) (let ((.def_97 (and .def_96 .def_84))) (let ((.def_98 (not .def_97))) (let ((.def_99 (and .def_98 .def_69))) (let ((.def_100 (and .def_99 .def_51))) (let ((.def_101 (not .def_100))) (let ((.def_102 (* (- 1) x4))) (let ((.def_103 (< .def_102 (- 1)))) (let ((.def_104 (not .def_103))) (let ((.def_105 (< .def_54 1))) (let ((.def_106 (and .def_105 .def_104))) (let ((.def_107 (not .def_106))) (let ((.def_108 (not A5))) (let ((.def_109 (* 1 x7))) (let ((.def_110 (* (- 1) x9))) (let ((.def_111 (+ .def_110 .def_109))) (let ((.def_112 (< .def_111 (- 1)))) (let ((.def_113 (and .def_112 .def_108))) (let ((.def_114 (or .def_113 .def_107))) (let ((.def_115 (+ .def_70 .def_24))) (let ((.def_116 (< .def_115 1))) (let ((.def_117 (not A6))) (let ((.def_118 (or .def_117 .def_116))) (let ((.def_119 (not .def_118))) (let ((.def_120 (* (- 1) x2))) (let ((.def_121 (< .def_120 1))) (let ((.def_122 (not .def_121))) (let ((.def_123 (and A9 .def_122))) (let ((.def_124 (not .def_123))) (let ((.def_125 (and .def_124 .def_119))) (let ((.def_126 (not .def_125))) (let ((.def_127 (and .def_126 .def_114))) (let ((.def_128 (not .def_127))) (let ((.def_129 (and .def_45 .def_58))) (let ((.def_130 (< .def_120 (- 1)))) (let ((.def_131 (not .def_130))) (let ((.def_132 (or .def_131 A5))) (let ((.def_133 (and .def_132 .def_129))) (let ((.def_134 (not A0))) (let ((.def_135 (+ .def_30 .def_71))) (let ((.def_136 (< .def_135 (- 1)))) (let ((.def_137 (not .def_136))) (let ((.def_138 (and .def_137 .def_134))) (let ((.def_139 (< .def_109 1))) (let ((.def_140 (not .def_139))) (let ((.def_141 (= .def_140 A5))) (let ((.def_142 (and .def_141 .def_138))) (let ((.def_143 (and .def_142 .def_133))) (let ((.def_144 (not .def_143))) (let ((.def_145 (or .def_144 .def_128))) (let ((.def_146 (< .def_3 (- 1)))) (let ((.def_147 (not .def_146))) (let ((.def_148 (+ .def_110 .def_24))) (let ((.def_149 (< .def_148 (- 1)))) (let ((.def_150 (and .def_149 .def_147))) (let ((.def_151 (+ .def_3 .def_76))) (let ((.def_152 (< .def_151 1))) (let ((.def_153 (not .def_152))) (let ((.def_154 (and .def_25 .def_153))) (let ((.def_155 (not .def_154))) (let ((.def_156 (and .def_155 .def_150))) (let ((.def_157 (not .def_156))) (let ((.def_158 (or A6 A8))) (let ((.def_159 (not .def_158))) (let ((.def_160 (< .def_27 1))) (let ((.def_161 (or .def_17 .def_160))) (let ((.def_162 (not .def_161))) (let ((.def_163 (or .def_162 .def_159))) (let ((.def_164 (not .def_163))) (let ((.def_165 (and .def_164 .def_157))) (let ((.def_166 (+ .def_109 .def_2))) (let ((.def_167 (< .def_166 (- 1)))) (let ((.def_168 (not .def_167))) (let ((.def_169 (* 1 x0))) (let ((.def_170 (+ .def_41 .def_169))) (let ((.def_171 (< .def_170 1))) (let ((.def_172 (not .def_171))) (let ((.def_173 (and .def_172 .def_168))) (let ((.def_174 (not .def_173))) (let ((.def_175 (+ .def_54 .def_3))) (let ((.def_176 (< .def_175 1))) (let ((.def_177 (not .def_176))) (let ((.def_178 (and .def_177 .def_17))) (let ((.def_179 (not .def_178))) (let ((.def_180 (or .def_179 .def_174))) (let ((.def_181 (+ .def_109 .def_89))) (let ((.def_182 (< .def_181 1))) (let ((.def_183 (not .def_182))) (let ((.def_184 (+ .def_12 .def_89))) (let ((.def_185 (< .def_184 1))) (let ((.def_186 (and .def_185 .def_183))) (let ((.def_187 (not .def_186))) (let ((.def_188 (< .def_89 1))) (let ((.def_189 (< .def_12 (- 1)))) (let ((.def_190 (or .def_189 .def_188))) (let ((.def_191 (not .def_190))) (let ((.def_192 (or .def_191 .def_187))) (let ((.def_193 (or .def_192 .def_180))) (let ((.def_194 (not .def_193))) (let ((.def_195 (= .def_194 .def_165))) (let ((.def_196 (and .def_195 .def_145))) (let ((.def_197 (not .def_196))) (let ((.def_198 (or .def_197 .def_101))) (let ((.def_199 (not .def_198))) (let ((.def_200 (not .def_38))) (let ((.def_201 (not A2))) (let ((.def_202 (or .def_201 .def_200))) (let ((.def_203 (and .def_130 A8))) (let ((.def_204 (and .def_203 .def_202))) (let ((.def_205 (+ .def_109 .def_12))) (let ((.def_206 (< .def_205 1))) (let ((.def_207 (not .def_206))) (let ((.def_208 (+ .def_110 .def_76))) (let ((.def_209 (< .def_208 1))) (let ((.def_210 (or .def_209 .def_207))) (let ((.def_211 (and .def_134 .def_58))) (let ((.def_212 (= .def_211 .def_210))) (let ((.def_213 (not .def_212))) (let ((.def_214 (and .def_213 .def_204))) (let ((.def_215 (or .def_45 A8))) (let ((.def_216 (not .def_215))) (let ((.def_217 (+ .def_11 .def_12))) (let ((.def_218 (< .def_217 1))) (let ((.def_219 (not .def_218))) (let ((.def_220 (or .def_219 .def_58))) (let ((.def_221 (or .def_220 .def_216))) (let ((.def_222 (not .def_221))) (let ((.def_223 (+ .def_89 .def_120))) (let ((.def_224 (< .def_223 (- 1)))) (let ((.def_225 (and .def_224 .def_58))) (let ((.def_226 (not .def_225))) (let ((.def_227 (+ .def_30 .def_110))) (let ((.def_228 (< .def_227 1))) (let ((.def_229 (not .def_228))) (let ((.def_230 (and .def_58 .def_229))) (let ((.def_231 (not .def_230))) (let ((.def_232 (and .def_231 .def_226))) (let ((.def_233 (or .def_232 .def_222))) (let ((.def_234 (and .def_233 .def_214))) (let ((.def_235 (not .def_234))) (let ((.def_236 (< .def_70 (- 1)))) (let ((.def_237 (and .def_236 .def_45))) (let ((.def_238 (not .def_237))) (let ((.def_239 (+ .def_90 .def_27))) (let ((.def_240 (< .def_239 (- 1)))) (let ((.def_241 (not .def_240))) (let ((.def_242 (+ .def_71 .def_11))) (let ((.def_243 (< .def_242 (- 1)))) (let ((.def_244 (not .def_243))) (let ((.def_245 (or .def_244 .def_241))) (let ((.def_246 (not .def_245))) (let ((.def_247 (and .def_246 .def_238))) (let ((.def_248 (not .def_247))) (let ((.def_249 (< .def_110 (- 1)))) (let ((.def_250 (< .def_6 1))) (let ((.def_251 (not .def_250))) (let ((.def_252 (= .def_251 .def_249))) (let ((.def_253 (not .def_252))) (let ((.def_254 (+ .def_120 .def_3))) (let ((.def_255 (< .def_254 (- 1)))) (let ((.def_256 (not .def_255))) (let ((.def_257 (or .def_256 A1))) (let ((.def_258 (or .def_257 .def_253))) (let ((.def_259 (not .def_258))) (let ((.def_260 (or .def_259 .def_248))) (let ((.def_261 (< .def_30 (- 1)))) (let ((.def_262 (not .def_261))) (let ((.def_263 (and .def_108 .def_262))) (let ((.def_264 (and A0 .def_131))) (let ((.def_265 (not .def_264))) (let ((.def_266 (or .def_265 .def_263))) (let ((.def_267 (not .def_266))) (let ((.def_268 (not A1))) (let ((.def_269 (not .def_189))) (let ((.def_270 (or .def_269 .def_268))) (let ((.def_271 (not A3))) (let ((.def_272 (< .def_2 1))) (let ((.def_273 (not .def_272))) (let ((.def_274 (and .def_273 .def_271))) (let ((.def_275 (not .def_274))) (let ((.def_276 (and .def_275 .def_270))) (let ((.def_277 (not .def_276))) (let ((.def_278 (and .def_277 .def_267))) (let ((.def_279 (not .def_278))) (let ((.def_280 (and .def_279 .def_260))) (let ((.def_281 (not .def_280))) (let ((.def_282 (or .def_281 .def_235))) (let ((.def_283 (not .def_282))) (let ((.def_284 (< .def_254 1))) (let ((.def_285 (= A7 .def_284))) (let ((.def_286 (< .def_109 (- 1)))) (let ((.def_287 (not .def_286))) (let ((.def_288 (and A5 .def_287))) (let ((.def_289 (and .def_288 .def_285))) (let ((.def_290 (or A7 A8))) (let ((.def_291 (not .def_290))) (let ((.def_292 (< .def_102 1))) (let ((.def_293 (not .def_292))) (let ((.def_294 (and .def_293 .def_147))) (let ((.def_295 (and .def_294 .def_291))) (let ((.def_296 (or .def_295 .def_289))) (let ((.def_297 (not .def_296))) (let ((.def_298 (+ .def_90 .def_71))) (let ((.def_299 (< .def_298 (- 1)))) (let ((.def_300 (not .def_299))) (let ((.def_301 (< .def_11 1))) (let ((.def_302 (not .def_301))) (let ((.def_303 (or .def_302 .def_300))) (let ((.def_304 (not .def_303))) (let ((.def_305 (+ .def_71 .def_102))) (let ((.def_306 (< .def_305 1))) (let ((.def_307 (not .def_306))) (let ((.def_308 (and .def_307 .def_302))) (let ((.def_309 (and .def_308 .def_304))) (let ((.def_310 (not .def_309))) (let ((.def_311 (+ .def_27 .def_102))) (let ((.def_312 (< .def_311 1))) (let ((.def_313 (not .def_312))) (let ((.def_314 (or .def_58 .def_313))) (let ((.def_315 (< .def_169 (- 1)))) (let ((.def_316 (+ .def_120 .def_76))) (let ((.def_317 (< .def_316 (- 1)))) (let ((.def_318 (not .def_317))) (let ((.def_319 (and .def_318 .def_315))) (let ((.def_320 (= .def_319 .def_314))) (let ((.def_321 (not .def_320))) (let ((.def_322 (and .def_321 .def_310))) (let ((.def_323 (not .def_322))) (let ((.def_324 (or .def_323 .def_297))) (let ((.def_325 (+ .def_109 .def_3))) (let ((.def_326 (< .def_325 (- 1)))) (let ((.def_327 (not .def_326))) (let ((.def_328 (or .def_327 A6))) (let ((.def_329 (+ .def_76 .def_89))) (let ((.def_330 (< .def_329 (- 1)))) (let ((.def_331 (or .def_330 A8))) (let ((.def_332 (or .def_331 .def_328))) (let ((.def_333 (< .def_24 1))) (let ((.def_334 (+ .def_11 .def_110))) (let ((.def_335 (< .def_334 1))) (let ((.def_336 (not .def_335))) (let ((.def_337 (and .def_336 .def_333))) (let ((.def_338 (not .def_337))) (let ((.def_339 (+ .def_76 .def_71))) (let ((.def_340 (< .def_339 (- 1)))) (let ((.def_341 (not .def_340))) (let ((.def_342 (or .def_134 .def_341))) (let ((.def_343 (= .def_342 .def_338))) (let ((.def_344 (and .def_343 .def_332))) (let ((.def_345 (< .def_41 1))) (let ((.def_346 (not .def_345))) (let ((.def_347 (and .def_201 .def_346))) (let ((.def_348 (not .def_347))) (let ((.def_349 (or .def_108 .def_73))) (let ((.def_350 (not .def_349))) (let ((.def_351 (and .def_350 .def_348))) (let ((.def_352 (or .def_134 A4))) (let ((.def_353 (not .def_352))) (let ((.def_354 (and A8 A1))) (let ((.def_355 (not .def_354))) (let ((.def_356 (or .def_355 .def_353))) (let ((.def_357 (not .def_356))) (let ((.def_358 (or .def_357 .def_351))) (let ((.def_359 (or .def_358 .def_344))) (let ((.def_360 (and .def_359 .def_324))) (let ((.def_361 (or .def_360 .def_283))) (let ((.def_362 (not .def_361))) (let ((.def_363 (and .def_362 .def_199))) (let ((.def_364 (+ .def_102 .def_27))) (let ((.def_365 (< .def_364 1))) (let ((.def_366 (or A3 .def_365))) (let ((.def_367 (not A9))) (let ((.def_368 (or .def_367 .def_108))) (let ((.def_369 (or .def_368 .def_366))) (let ((.def_370 (not .def_369))) (let ((.def_371 (or A3 A5))) (let ((.def_372 (+ .def_89 .def_76))) (let ((.def_373 (< .def_372 (- 1)))) (let ((.def_374 (not .def_373))) (let ((.def_375 (or .def_58 .def_374))) (let ((.def_376 (not .def_375))) (let ((.def_377 (or .def_376 .def_371))) (let ((.def_378 (= .def_377 .def_370))) (let ((.def_379 (not .def_378))) (let ((.def_380 (and A6 .def_367))) (let ((.def_381 (= .def_31 .def_17))) (let ((.def_382 (not .def_381))) (let ((.def_383 (or .def_382 .def_380))) (let ((.def_384 (not .def_383))) (let ((.def_385 (< .def_3 1))) (let ((.def_386 (not .def_385))) (let ((.def_387 (or .def_103 .def_386))) (let ((.def_388 (not .def_387))) (let ((.def_389 (and A1 A4))) (let ((.def_390 (and .def_389 .def_388))) (let ((.def_391 (and .def_390 .def_384))) (let ((.def_392 (not .def_391))) (let ((.def_393 (= .def_392 .def_379))) (let ((.def_394 (< .def_90 (- 1)))) (let ((.def_395 (not .def_394))) (let ((.def_396 (+ .def_54 .def_24))) (let ((.def_397 (< .def_396 (- 1)))) (let ((.def_398 (not .def_397))) (let ((.def_399 (or .def_398 .def_395))) (let ((.def_400 (not .def_399))) (let ((.def_401 (and A8 .def_271))) (let ((.def_402 (or .def_401 .def_400))) (let ((.def_403 (not .def_402))) (let ((.def_404 (and A5 .def_45))) (let ((.def_405 (not .def_404))) (let ((.def_406 (or A0 .def_268))) (let ((.def_407 (= .def_406 .def_405))) (let ((.def_408 (not .def_407))) (let ((.def_409 (or .def_408 .def_403))) (let ((.def_410 (not .def_409))) (let ((.def_411 (+ .def_41 .def_12))) (let ((.def_412 (< .def_411 (- 1)))) (let ((.def_413 (not .def_412))) (let ((.def_414 (or A7 .def_413))) (let ((.def_415 (not .def_414))) (let ((.def_416 (< .def_76 (- 1)))) (let ((.def_417 (and .def_58 .def_416))) (let ((.def_418 (and .def_417 .def_415))) (let ((.def_419 (or .def_268 A8))) (let ((.def_420 (not .def_419))) (let ((.def_421 (and .def_45 .def_201))) (let ((.def_422 (or .def_421 .def_420))) (let ((.def_423 (not .def_422))) (let ((.def_424 (or .def_423 .def_418))) (let ((.def_425 (and .def_424 .def_410))) (let ((.def_426 (or .def_425 .def_393))) (let ((.def_427 (not .def_426))) (let ((.def_428 (and A0 A7))) (let ((.def_429 (+ .def_12 .def_169))) (let ((.def_430 (< .def_429 (- 1)))) (let ((.def_431 (not .def_430))) (let ((.def_432 (or .def_431 .def_268))) (let ((.def_433 (not .def_432))) (let ((.def_434 (or .def_433 .def_428))) (let ((.def_435 (not .def_434))) (let ((.def_436 (+ .def_169 .def_2))) (let ((.def_437 (< .def_436 (- 1)))) (let ((.def_438 (not .def_437))) (let ((.def_439 (and A8 .def_438))) (let ((.def_440 (not .def_439))) (let ((.def_441 (+ .def_41 .def_24))) (let ((.def_442 (< .def_441 (- 1)))) (let ((.def_443 (not .def_442))) (let ((.def_444 (= A0 .def_443))) (let ((.def_445 (not .def_444))) (let ((.def_446 (= .def_445 .def_440))) (let ((.def_447 (not .def_446))) (let ((.def_448 (and .def_447 .def_435))) (let ((.def_449 (not .def_448))) (let ((.def_450 (or A6 A3))) (let ((.def_451 (or .def_268 A5))) (let ((.def_452 (not .def_451))) (let ((.def_453 (and .def_452 .def_450))) (let ((.def_454 (+ .def_120 .def_54))) (let ((.def_455 (< .def_454 (- 1)))) (let ((.def_456 (and .def_455 .def_8))) (let ((.def_457 (not .def_456))) (let ((.def_458 (< .def_110 1))) (let ((.def_459 (not .def_458))) (let ((.def_460 (and .def_459 A0))) (let ((.def_461 (not .def_460))) (let ((.def_462 (= .def_461 .def_457))) (let ((.def_463 (or .def_462 .def_453))) (let ((.def_464 (or .def_463 .def_449))) (let ((.def_465 (not .def_464))) (let ((.def_466 (or .def_300 .def_108))) (let ((.def_467 (not .def_466))) (let ((.def_468 (+ .def_76 .def_2))) (let ((.def_469 (< .def_468 (- 1)))) (let ((.def_470 (and A2 .def_469))) (let ((.def_471 (and .def_470 .def_467))) (let ((.def_472 (+ .def_90 .def_12))) (let ((.def_473 (< .def_472 (- 1)))) (let ((.def_474 (or .def_473 A3))) (let ((.def_475 (not .def_474))) (let ((.def_476 (and .def_131 .def_117))) (let ((.def_477 (or .def_476 .def_475))) (let ((.def_478 (or .def_477 .def_471))) (let ((.def_479 (and A3 .def_201))) (let ((.def_480 (not .def_479))) (let ((.def_481 (or A0 A7))) (let ((.def_482 (and .def_481 .def_480))) (let ((.def_483 (or .def_108 A9))) (let ((.def_484 (not .def_483))) (let ((.def_485 (and .def_271 A1))) (let ((.def_486 (or .def_485 .def_484))) (let ((.def_487 (not .def_486))) (let ((.def_488 (and .def_487 .def_482))) (let ((.def_489 (or .def_488 .def_478))) (let ((.def_490 (and .def_489 .def_465))) (let ((.def_491 (not .def_490))) (let ((.def_492 (and .def_491 .def_427))) (let ((.def_493 (not .def_492))) (let ((.def_494 (+ .def_41 .def_110))) (let ((.def_495 (< .def_494 (- 1)))) (let ((.def_496 (+ .def_12 .def_27))) (let ((.def_497 (< .def_496 1))) (let ((.def_498 (or .def_497 .def_495))) (let ((.def_499 (not .def_498))) (let ((.def_500 (or .def_207 .def_7))) (let ((.def_501 (and .def_500 .def_499))) (let ((.def_502 (and .def_58 .def_315))) (let ((.def_503 (+ .def_2 .def_41))) (let ((.def_504 (< .def_503 1))) (let ((.def_505 (not .def_504))) (let ((.def_506 (or A7 .def_505))) (let ((.def_507 (not .def_506))) (let ((.def_508 (and .def_507 .def_502))) (let ((.def_509 (= .def_508 .def_501))) (let ((.def_510 (not .def_509))) (let ((.def_511 (not .def_333))) (let ((.def_512 (or A9 .def_511))) (let ((.def_513 (or A7 .def_333))) (let ((.def_514 (or .def_513 .def_512))) (let ((.def_515 (not .def_514))) (let ((.def_516 (and .def_201 .def_261))) (let ((.def_517 (+ .def_109 .def_120))) (let ((.def_518 (< .def_517 1))) (let ((.def_519 (not .def_518))) (let ((.def_520 (+ .def_110 .def_70))) (let ((.def_521 (< .def_520 1))) (let ((.def_522 (and .def_521 .def_519))) (let ((.def_523 (not .def_522))) (let ((.def_524 (and .def_523 .def_516))) (let ((.def_525 (not .def_524))) (let ((.def_526 (and .def_525 .def_515))) (let ((.def_527 (or .def_526 .def_510))) (let ((.def_528 (+ .def_12 .def_3))) (let ((.def_529 (< .def_528 1))) (let ((.def_530 (not .def_529))) (let ((.def_531 (and .def_530 A5))) (let ((.def_532 (not .def_531))) (let ((.def_533 (+ .def_120 .def_169))) (let ((.def_534 (< .def_533 1))) (let ((.def_535 (not .def_534))) (let ((.def_536 (or .def_535 .def_160))) (let ((.def_537 (or .def_536 .def_532))) (let ((.def_538 (not .def_537))) (let ((.def_539 (< .def_70 1))) (let ((.def_540 (not .def_539))) (let ((.def_541 (and .def_315 .def_540))) (let ((.def_542 (not .def_541))) (let ((.def_543 (+ .def_2 .def_71))) (let ((.def_544 (< .def_543 1))) (let ((.def_545 (not .def_544))) (let ((.def_546 (and .def_545 .def_32))) (let ((.def_547 (or .def_546 .def_542))) (let ((.def_548 (not .def_547))) (let ((.def_549 (and .def_548 .def_538))) (let ((.def_550 (not .def_549))) (let ((.def_551 (< .def_496 (- 1)))) (let ((.def_552 (and A6 .def_551))) (let ((.def_553 (not .def_160))) (let ((.def_554 (or A7 .def_553))) (let ((.def_555 (not .def_554))) (let ((.def_556 (or .def_555 .def_552))) (let ((.def_557 (not .def_556))) (let ((.def_558 (or .def_302 .def_45))) (let ((.def_559 (+ .def_70 .def_102))) (let ((.def_560 (< .def_559 (- 1)))) (let ((.def_561 (or .def_560 .def_45))) (let ((.def_562 (not .def_561))) (let ((.def_563 (or .def_562 .def_558))) (let ((.def_564 (not .def_563))) (let ((.def_565 (= .def_564 .def_557))) (let ((.def_566 (and .def_565 .def_550))) (let ((.def_567 (= .def_566 .def_527))) (let ((.def_568 (+ .def_30 .def_70))) (let ((.def_569 (< .def_568 (- 1)))) (let ((.def_570 (and .def_569 .def_271))) (let ((.def_571 (not .def_570))) (let ((.def_572 (+ .def_110 .def_120))) (let ((.def_573 (< .def_572 (- 1)))) (let ((.def_574 (not .def_573))) (let ((.def_575 (or .def_574 A5))) (let ((.def_576 (not .def_575))) (let ((.def_577 (and .def_576 .def_571))) (let ((.def_578 (not .def_577))) (let ((.def_579 (and .def_271 .def_108))) (let ((.def_580 (not .def_579))) (let ((.def_581 (or .def_580 .def_460))) (let ((.def_582 (or .def_581 .def_578))) (let ((.def_583 (not .def_582))) (let ((.def_584 (+ .def_6 .def_110))) (let ((.def_585 (< .def_584 1))) (let ((.def_586 (and .def_585 .def_271))) (let ((.def_587 (not .def_586))) (let ((.def_588 (+ .def_120 .def_70))) (let ((.def_589 (< .def_588 (- 1)))) (let ((.def_590 (not .def_589))) (let ((.def_591 (and .def_590 A3))) (let ((.def_592 (not .def_591))) (let ((.def_593 (or .def_592 .def_587))) (let ((.def_594 (not .def_593))) (let ((.def_595 (or A0 A1))) (let ((.def_596 (not .def_595))) (let ((.def_597 (+ .def_169 .def_89))) (let ((.def_598 (< .def_597 (- 1)))) (let ((.def_599 (or .def_262 .def_598))) (let ((.def_600 (or .def_599 .def_596))) (let ((.def_601 (and .def_600 .def_594))) (let ((.def_602 (and .def_601 .def_583))) (let ((.def_603 (not .def_602))) (let ((.def_604 (+ .def_54 .def_27))) (let ((.def_605 (< .def_604 1))) (let ((.def_606 (and .def_605 A3))) (let ((.def_607 (and .def_58 A9))) (let ((.def_608 (= .def_607 .def_606))) (let ((.def_609 (+ .def_109 .def_11))) (let ((.def_610 (< .def_609 (- 1)))) (let ((.def_611 (not .def_610))) (let ((.def_612 (+ .def_54 .def_6))) (let ((.def_613 (< .def_612 1))) (let ((.def_614 (and .def_613 .def_611))) (let ((.def_615 (not .def_614))) (let ((.def_616 (+ .def_24 .def_110))) (let ((.def_617 (< .def_616 (- 1)))) (let ((.def_618 (not .def_617))) (let ((.def_619 (and .def_271 .def_618))) (let ((.def_620 (not .def_619))) (let ((.def_621 (and .def_620 .def_615))) (let ((.def_622 (and .def_621 .def_608))) (let ((.def_623 (not .def_622))) (let ((.def_624 (+ .def_2 .def_169))) (let ((.def_625 (< .def_624 1))) (let ((.def_626 (+ .def_27 .def_76))) (let ((.def_627 (< .def_626 1))) (let ((.def_628 (or .def_627 .def_625))) (let ((.def_629 (+ .def_12 .def_76))) (let ((.def_630 (< .def_629 1))) (let ((.def_631 (not .def_630))) (let ((.def_632 (= .def_268 .def_631))) (let ((.def_633 (not .def_632))) (let ((.def_634 (and .def_633 .def_628))) (let ((.def_635 (not .def_634))) (let ((.def_636 (< .def_2 (- 1)))) (let ((.def_637 (not .def_636))) (let ((.def_638 (and .def_250 .def_637))) (let ((.def_639 (+ .def_120 .def_27))) (let ((.def_640 (< .def_639 (- 1)))) (let ((.def_641 (and A6 .def_640))) (let ((.def_642 (not .def_641))) (let ((.def_643 (or .def_642 .def_638))) (let ((.def_644 (or .def_643 .def_635))) (let ((.def_645 (not .def_644))) (let ((.def_646 (or .def_645 .def_623))) (let ((.def_647 (not .def_646))) (let ((.def_648 (or .def_647 .def_603))) (let ((.def_649 (not .def_648))) (let ((.def_650 (or .def_649 .def_567))) (let ((.def_651 (not .def_650))) (let ((.def_652 (= .def_651 .def_493))) (let ((.def_653 (not .def_652))) (let ((.def_654 (and .def_653 .def_363))) (let ((.def_655 (<= x9 1))) (let ((.def_656 (<= 0 x9))) (let ((.def_657 (<= x8 1))) (let ((.def_658 (<= 0 x8))) (let ((.def_659 (<= x7 1))) (let ((.def_660 (<= 0 x7))) (let ((.def_661 (<= x6 1))) (let ((.def_662 (<= 0 x6))) (let ((.def_663 (<= x5 1))) (let ((.def_664 (<= 0 x5))) (let ((.def_665 (<= x4 1))) (let ((.def_666 (<= 0 x4))) (let ((.def_667 (<= x3 1))) (let ((.def_668 (<= 0 x3))) (let ((.def_669 (<= x2 1))) (let ((.def_670 (<= 0 x2))) (let ((.def_671 (<= x1 1))) (let ((.def_672 (<= 0 x1))) (let ((.def_673 (<= x0 1))) (let ((.def_674 (<= 0 x0))) (let ((.def_675 (and .def_674 .def_673 .def_672 .def_671 .def_670 .def_669 .def_668 .def_667 .def_666 .def_665 .def_664 .def_663 .def_662 .def_661 .def_660 .def_659 .def_658 .def_657 .def_656 .def_655 .def_654))) .def_675)))))))))))))))))))))))))))))))))))))))))))))))))))))))))))))))))))))))))))))))))))))))))))))))))))))))))))))))))))))))))))))))))))))))))))))))))))))))))))))))))))))))))))))))))))))))))))))))))))))))))))))))))))))))))))))))))))))))))))))))))))))))))))))))))))))))))))))))))))))))))))))))))))))))))))))))))))))))))))))))))))))))))))))))))))))))))))))))))))))))))))))))))))))))))))))))))))))))))))))))))))))))))))))))))))))))))))))))))))))))))))))))))))))))))))))))))))))))))))))))))))))))))))))))))))))))))))))))))))))))))))))))))))))))))))))))))))))))))))))))))))))))))))))))))))))))))))))))))))))))))))))))))))))))))))))))))))))))))))))))))))))))))))))))))))))))))))))))))))))
(check-sat)
